\Problem name: 

Minimize
OBJROW: -7 x_0 -7 x_1 -7 x_2 -5 x_3 -8 x_4 -8 x_5 -9 x_6 -10 x_7 -7 x_8
Subject To
constr(0):  x_0 + 3 x_1 + x_2 + 3 x_3 + 3 x_4 + 7 x_5 + 2 x_6 + x_7 + 4 x_8 <= 80
constr(1):  7 x_0 + 6 x_1 + 10 x_2 + x_3 + 7 x_4 + 2 x_5 + 2 x_6 + 7 x_7 + x_8 <= 90
constr(2):  3 x_0 + 2 x_1 + x_2 + 3 x_3 + 3 x_4 + 2 x_5 + x_6 + 6 x_7 + 5 x_8 <= 10
constr(3):  10 x_0 + 8 x_1 + 3 x_2 + 6 x_3 + 10 x_4 + 7 x_5 + 3 x_6 + 10 x_7 + 4 x_8 <= 30
constr(4):  2 x_0 + 8 x_1 + 6 x_2 + 5 x_3 + 6 x_4 + 6 x_5 + 9 x_6 + 7 x_7 + 2 x_8 <= 80
constr(5):  3 x_0 + 10 x_1 + x_2 + 9 x_3 + 2 x_4 + 7 x_5 + 7 x_6 + 9 x_7 + 10 x_8 <= 90
constr(6):  x_0 + 7 x_1 + 10 x_2 + 10 x_3 + 5 x_4 + 2 x_5 + 9 x_6 + 10 x_7 + 2 x_8 <= 20
constr(7):  10 x_0 + 3 x_1 + 2 x_2 + 3 x_3 + 10 x_4 + 2 x_5 + x_6 + 9 x_7 + 7 x_8 <= 10
constr(8):  2 x_0 + x_1 + 7 x_2 + 10 x_3 + x_4 + x_5 + 2 x_6 + x_7 + x_8 <= 50
constr(9):  x_5 = 1
constr(10):  x_6 = 1
constr(11):  x_8 = 1
Bounds
End
